NAME:34_17
TYPE: TSP
DIMENSION: 34
EDGE_WEIGHT_TYPE: EXPLICIT
EDGE_WEIGHT_FORMAT: UPPER_ROW
EDGE_WEIGHT_SECTION
792 792 792 792 792 792 792 792 792 792 792 792 792 792 792 792 0 290 290 268 323 330 268 272 272 272 276 280 280 284 286 286 323 792 792 792 792 792 792 792 792 792 792 792 792 792 792 792 282 0 264 286 337 308 282 282 278 274 274 274 270 270 268 264 297 792 792 792 792 792 792 792 792 792 792 792 792 792 792 374 396 0 374 341 308 378 382 382 382 386 390 390 394 396 396 297 792 792 792 792 792 792 792 792 792 792 792 792 792 308 290 286 0 363 330 308 308 304 300 300 300 296 296 294 290 319 792 792 792 792 792 792 792 792 792 792 792 792 297 323 319 301 0 275 301 305 305 305 309 313 313 317 319 319 308 792 792 792 792 792 792 792 792 792 792 792 330 356 308 330 385 0 334 338 338 338 342 346 346 350 352 352 297 792 792 792 792 792 792 792 792 792 792 264 286 286 268 319 330 0 268 268 268 272 276 276 280 282 282 319 792 792 792 792 792 792 792 792 792 264 282 282 268 319 326 264 0 264 264 268 272 272 276 278 278 315 792 792 792 792 792 792 792 792 268 282 282 272 323 326 268 268 0 264 268 272 272 276 278 278 315 792 792 792 792 792 792 792 272 282 282 276 327 326 272 272 268 0 268 272 272 276 278 278 315 792 792 792 792 792 792 272 278 278 276 327 322 272 272 268 264 0 268 268 272 274 274 311 792 792 792 792 792 272 274 274 276 327 318 272 272 268 264 264 0 264 268 270 270 307 792 792 792 792 276 274 274 280 331 318 276 276 272 268 268 268 0 268 270 270 307 792 792 792 276 270 270 280 331 314 276 276 272 268 268 268 264 0 266 266 303 792 792 278 268 268 282 333 312 278 278 274 270 270 270 266 266 0 264 301 792 282 268 268 286 337 312 282 282 278 274 274 274 270 270 268 0 301 341 367 275 341 352 275 345 349 349 349 353 357 357 361 363 363 0 792 792 792 792 792 792 792 792 792 792 792 792 792 792 792 792 792 792 792 792 792 792 792 792 792 792 792 792 792 792 792 792 792 792 792 792 792 792 792 792 792 792 792 792 792 792 792 792 792 792 792 792 792 792 792 792 792 792 792 792 792 792 792 792 792 792 792 792 792 792 792 792 792 792 792 792 792 792 792 792 792 792 792 792 792 792 792 792 792 792 792 792 792 792 792 792 792 792 792 792 792 792 792 792 792 792 792 792 792 792 792 792 792 792 792 792 792 792 792 792 792 792 792 792 792 792 792 792 792 792 792 792 792 792 792 792 